32	0

0	2	3	2
5	1	4
7	2	5	6
2	2	5	6
7	1	7
7	1	7
4	2	8	9
3	1	10
7	2	11	12
1	2	11	12
4	3	13	14	15
6	2	13	14
10	1	16
2	2	16	18
10	2	16	18
1	1	17
6	2	19	20
10	1	19
3	2	21	22
4	2	21	22
7	1	23
3	2	23	24
7	1	25
7	1	25
9	2	26	27
10	1	30
3	1	28
1	2	29	31
4	1	30
5	1	32
10	1	32
0	0
